
Gurobi 11.0.1 (win64) logging started Thu Mar 14 08:02:09 2024

Set parameter LogFile to value "C:\Projetos\Job_Rotation_Algorithms\Outputs\GurobiLogs\gurobi_log-output-59_ros-c13-CostaMirallesModel-NoExtraConstraint-2.log"
Gurobi Optimizer version 11.0.1 build v11.0.1rc0 (win64 - Windows 10.0 (19045.2))

CPU model: 11th Gen Intel(R) Core(TM) i7-1165G7 @ 2.80GHz, instruction set [SSE2|AVX|AVX2|AVX512]
Thread count: 4 physical cores, 8 logical processors, using up to 1 threads


Gurobi 11.0.1 (win64) logging started Fri Mar 15 00:39:36 2024

Set parameter LogFile to value "C:\Projetos\Job_Rotation_Algorithms\Outputs\GurobiLogs\gurobi_log-output-59_ros-c13-CostaMirallesModel-NoExtraConstraint-2.log"
Gurobi Optimizer version 11.0.1 build v11.0.1rc0 (win64 - Windows 10.0 (19045.2))

CPU model: 11th Gen Intel(R) Core(TM) i7-1165G7 @ 2.80GHz, instruction set [SSE2|AVX|AVX2|AVX512]
Thread count: 4 physical cores, 8 logical processors, using up to 1 threads


Gurobi 11.0.1 (win64) logging started Sat Mar 16 12:25:50 2024

Set parameter LogFile to value "C:\Projetos\Job_Rotation_Algorithms\Outputs\GurobiLogs\gurobi_log-output-59_ros-c13-CostaMirallesModel-NoExtraConstraint-2.log"
Gurobi Optimizer version 11.0.1 build v11.0.1rc0 (win64 - Windows 10.0 (19045.2))

CPU model: 11th Gen Intel(R) Core(TM) i7-1165G7 @ 2.80GHz, instruction set [SSE2|AVX|AVX2|AVX512]
Thread count: 4 physical cores, 8 logical processors, using up to 1 threads


Gurobi 11.0.1 (win64) logging started Sat Mar 16 22:34:54 2024

Set parameter LogFile to value "C:\Projetos\Job_Rotation_Algorithms\Outputs\GurobiLogs\gurobi_log-output-59_ros-c13-CostaMirallesModel-NoExtraConstraint-2.log"
Gurobi Optimizer version 11.0.1 build v11.0.1rc0 (win64 - Windows 10.0 (19045.2))

CPU model: 11th Gen Intel(R) Core(TM) i7-1165G7 @ 2.80GHz, instruction set [SSE2|AVX|AVX2|AVX512]
Thread count: 4 physical cores, 8 logical processors, using up to 1 threads


Gurobi 11.0.1 (win64) logging started Sun Mar 17 02:10:30 2024

Set parameter LogFile to value "C:\Projetos\Job_Rotation_Algorithms\Outputs\GurobiLogs\gurobi_log-output-59_ros-c13-CostaMirallesModel-NoExtraConstraint-2.log"
Gurobi Optimizer version 11.0.1 build v11.0.1rc0 (win64 - Windows 10.0 (19045.2))

CPU model: 11th Gen Intel(R) Core(TM) i7-1165G7 @ 2.80GHz, instruction set [SSE2|AVX|AVX2|AVX512]
Thread count: 4 physical cores, 8 logical processors, using up to 1 threads


Gurobi 11.0.1 (win64) logging started Sun Mar 17 21:26:45 2024

Set parameter LogFile to value "C:\Projetos\Job_Rotation_Algorithms\Outputs\GurobiLogs\gurobi_log-output-59_ros-c13-CostaMirallesModel-NoExtraConstraint-2.log"
Gurobi Optimizer version 11.0.1 build v11.0.1rc0 (win64 - Windows 10.0 (19045.2))

CPU model: 11th Gen Intel(R) Core(TM) i7-1165G7 @ 2.80GHz, instruction set [SSE2|AVX|AVX2|AVX512]
Thread count: 4 physical cores, 8 logical processors, using up to 1 threads

WLS license 901039 - registered to Bitka Analytics
Optimize a model with 667 rows, 1582 columns and 16306 nonzeros
Model fingerprint: 0xa4f7ff9d
Variable types: 2 continuous, 1580 integer (1580 binary)
Coefficient statistics:
  Matrix range     [1e+00, 3e+01]
  Objective range  [1e+00, 1e+00]
  Bounds range     [1e+00, 3e+01]
  RHS range        [1e+00, 3e+01]
Presolve removed 81 rows and 531 columns
Presolve time: 0.09s
Presolved: 586 rows, 1051 columns, 9318 nonzeros
Variable types: 0 continuous, 1051 integer (1046 binary)

Root relaxation: objective 5.000000e+01, 671 iterations, 0.02 seconds (0.01 work units)

    Nodes    |    Current Node    |     Objective Bounds      |     Work
 Expl Unexpl |  Obj  Depth IntInf | Incumbent    BestBd   Gap | It/Node Time

     0     0   50.00000    0   31          -   50.00000      -     -    0s
     0     0   50.00000    0  204          -   50.00000      -     -    0s
     0     0   50.00000    0  174          -   50.00000      -     -    0s
     0     0   50.00000    0   60          -   50.00000      -     -    0s
     0     0   50.00000    0   57          -   50.00000      -     -    0s
     0     0   50.00000    0   52          -   50.00000      -     -    1s
     0     0   50.00000    0   49          -   50.00000      -     -    1s
     0     2   50.00000    0   49          -   50.00000      -     -    1s
   704   224   50.00000   14  199          -   50.00000      -   103    5s
  1071   332   50.00000   25  138          -   50.00000      -  18.9   10s
* 1151   288              28      41.0000000   50.00000  22.0%  28.6   12s
  1308   248 infeasible   31        41.00000   50.00000  22.0%  43.3   15s

Cutting planes:
  Cover: 27
  Clique: 47
  MIR: 1
  Flow cover: 13
  GUB cover: 5
  Zero half: 1
  RLT: 4
  BQP: 1

Explored 1628 nodes (221673 simplex iterations) in 18.88 seconds (16.07 work units)
Thread count was 1 (of 8 available processors)

Solution count 1: 41 

Optimal solution found (tolerance 1.00e-03)
Best objective 4.100000000000e+01, best bound 4.100000000000e+01, gap 0.0000%
